Version identifier: 22.1.0.0 | 2022-03-09 | 1a383f8ce
CPXPARAM_Threads                                 1
CPXPARAM_MIP_Strategy_VariableSelect             3
CPXPARAM_TimeLimit                               599.99998478700002
1 of 1 MIP starts provided solutions.
MIP start 'm1' defined initial solution with objective 1.0000.
Tried aggregator 2 times.
MIP Presolve eliminated 43 rows and 1 columns.
MIP Presolve added 36 rows and 9 columns.
MIP Presolve modified 5 coefficients.
Aggregator did 9 substitutions.
Reduced MIP has 1810 rows, 7800 columns, and 149728 nonzeros.
Reduced MIP has 7800 binaries, 0 generals, 0 SOSs, and 0 indicators.
Presolve time = 0.15 sec. (177.97 ticks)
Probing time = 0.03 sec. (29.54 ticks)
Tried aggregator 1 time.
Detecting symmetries...
Reduced MIP has 1810 rows, 7800 columns, and 149728 nonzeros.
Reduced MIP has 7800 binaries, 0 generals, 0 SOSs, and 0 indicators.
Presolve time = 0.11 sec. (139.19 ticks)
Probing time = 0.04 sec. (29.54 ticks)
Clique table members: 301.
MIP emphasis: balance optimality and feasibility.
MIP search method: dynamic search.
Parallel mode: none, using 1 thread.
Root relaxation solution time = 0.31 sec. (329.12 ticks)

        Nodes                                         Cuts/
   Node  Left     Objective  IInf  Best Integer    Best Bound    ItCnt     Gap

*     0+    0                            1.0000    45150.0000              --- 
      0     0      300.0000   468        1.0000      300.0000     1977     --- 
*     0+    0                          300.0000      300.0000             0.00%
      0     0        cutoff            300.0000      300.0000     1977    0.00%
Elapsed time = 2.20 sec. (2191.83 ticks, tree = 0.01 MB, solutions = 2)

Root node processing (before b&c):
  Real time             =    2.20 sec. (2192.13 ticks)
Sequential b&c:
  Real time             =    0.00 sec. (0.00 ticks)
                          ------------
Total (root+branch&cut) =    2.20 sec. (2192.13 ticks)
Primal:	300
Dual:	300
Status:	Optimal
Time:	2.23
Sequence:
	22
	18
	8
	5
	9
	18
	23
	2
	16
	1
	15
	23
	6
	23
	4
	23
	3
	20
	20
	8
	0
	19
	2
	2
	16
	12
	15
	10
	11
	0
	16
	11
	16
	1
	17
	10
	19
	19
	19
	7
	23
	19
	7
	20
	8
	20
	5
	11
	20
	6
	7
	20
	11
	24
	21
	2
	20
	1
	17
	1
	19
	9
	12
	23
	9
	9
	1
	13
	2
	4
	11
	1
	1
	4
	9
	9
	1
	10
	13
	9
	9
	9
	10
	18
	9
	21
	18
	2
	24
	4
	1
	5
	6
	23
	0
	6
	5
	21
	4
	1
	3
	21
	21
	4
	1
	8
	18
	1
	19
	1
	1
	4
	4
	22
	2
	21
	11
	17
	21
	17
	18
	6
	20
	12
	17
	17
	14
	17
	11
	21
	18
	15
	16
	1
	19
	24
	7
	2
	20
	11
	5
	24
	8
	12
	7
	19
	16
	10
	19
	20
	21
	2
	16
	18
	15
	0
	19
	15
	15
	0
	23
	11
	14
	23
	15
	14
	15
	2
	14
	14
	24
	15
	0
	7
	3
	24
	6
	23
	6
	12
	14
	24
	17
	24
	14
	24
	0
	6
	10
	15
	16
	22
	14
	15
	21
	21
	8
	21
	3
	1
	2
	10
	24
	3
	13
	11
	6
	10
	6
	20
	6
	22
	13
	24
	9
	8
	7
	6
	24
	23
	9
	3
	2
	16
	14
	12
	14
	0
	6
	16
	12
	11
	16
	11
	7
	11
	11
	11
	10
	4
	12
	12
	19
	22
	12
	9
	21
	15
	23
	4
	3
	17
	17
	21
	3
	0
	0
	8
	0
	0
	4
	12
	3
	4
	17
	17
	0
	20
	17
	0
	8
	12
	16
	9
	0
	14
	16
	5
	17
	14
	5
	5
	8
	17
	8
	6
	3
	16
	5
	11
	5
	7
	11
	24
	18
	13
	1
	22
	8
	23
